90 116858
11 82 40 53 58 64 72 8 25 5 79 43 63 77 13 1 61 74 21 24 52 41 44 19 66 14 81 38 17 42 76 16 57 7 15 78 29 73 2 67 33 32 28 47 51 6 54 83 35 39 88 20 80 37 3 84 89 4 62 55 9 75 49 65 68 87 90 26 85 23 27 50 56 36 69 12 60 46 71 30 86 48 45 70 22 59 10 18 31 34 
